99 100
24 21 1
3 4 1
26 12 1
12 41 1
5 70 1
24 69 1
62 54 1
40 48 1
48 5 1
8 19 1
12 9 1
29 18 1
3 15 1
3 96 1
22 24 1
30 49 1
19 36 1
10 31 1
44 66 1
42 41 1
47 20 1
28 86 1
28 40 1
77 46 1
87 64 1
8 40 1
82 41 1
2 73 1
38 80 1
50 12 1
31 67 1
100 89 1
1 92 1
52 95 1
100 27 1
9 29 1
75 68 1
18 40 1
30 13 1
30 30 1
12 10 1
45 47 1
22 72 1
62 92 1
10 13 1
33 16 1
26 19 1
7 17 1
20 28 1
33 46 1
41 40 1
13 3 1
41 4 1
97 38 1
78 22 1
80 50 1
24 43 1
19 41 1
7 16 1
10 72 1
19 42 1
4 7 1
8 22 1
100 31 1
25 4 1
50 33 1
20 39 1
3 14 1
43 27 1
9 22 1
44 18 2
17 8 1
23 12 1
29 81 1
29 71 1
43 14 1
14 8 1
10 34 1
26 11 1
31 32 1
77 16 1
4 8 1
35 25 1
30 11 1
87 36 1
9 43 1
6 50 1
41 2 1
8 17 1
26 40 1
92 37 1
13 5 1
46 10 1
4 48 1
32 36 1
48 19 1
45 15 1
37 47 1
43 97 1
100 100 
100 100 
100 100 
100 100 
100 100 
100 100 
100 100 
100 100 
100 100 
100 100 
100 100 
100 100 
100 100 
100 100 
100 100 
100 100 
100 100 
100 100 
100 100 
100 100 
100 100 
100 100 
100 100 
100 100 
100 100 
100 100 
100 100 
100 100 
100 100 
100 100 
100 100 
100 100 
100 100 
100 100 
100 100 
100 100 
100 100 
100 100 
100 100 
100 100 
100 100 
100 100 
100 100 
100 100 
100 100 
100 100 
100 100 
100 100 
100 100 
100 100 
100 100 
100 100 
100 100 
100 100 
100 100 
100 100 
100 100 
100 100 
100 100 
100 100 
100 100 
100 100 
100 100 
100 100 
100 100 
100 100 
100 100 
100 100 
100 100 
100 100 
100 100 
100 100 
100 100 
100 100 
100 100 
100 100 
100 100 
100 100 
100 100 
100 100 
100 100 
100 100 
100 100 
100 100 
100 100 
100 100 
100 100 
100 100 
100 100 
100 100 
100 100 
100 100 
100 100 
100 100 
100 100 
100 100 
100 100 
100 100 
100 100 
100 100 
100 100 
